maximize

	+ 1 x_01

subject to

-171 x_01 - 171 x_02 - 171 x_03 - 171 x_04 - 171 x_05 - 171 x_06 - 86 x_07 - 86 x_08 - 86 x_09 - 86 x_10 - 86 x_11 - 86 x_12 - 86 x_13 - 86 x_14 >= -137

171 x_01 + 85 x_03 + 85 x_04 + 85 x_05 + 85 x_06 + 85 x_11 + 85 x_12 + 85 x_13 + 85 x_14 >= 34

171 x_02 + 85 x_03 + 85 x_04 + 85 x_05 + 85 x_06 + 85 x_07 + 85 x_08 + 85 x_09 + 85 x_10 >= 34

85 x_01 + 85 x_02 + 171 x_03 + 85 x_05 + 85 x_06 + 85 x_09 + 85 x_10 + 85 x_13 + 85 x_14 >= 34

85 x_01 + 85 x_02 + 171 x_04 + 85 x_05 + 85 x_06 + 85 x_07 + 85 x_08 + 85 x_11 + 85 x_12 >= 34

85 x_01 + 85 x_02 + 85 x_03 + 85 x_04 + 171 x_05 + 85 x_09 + 85 x_10 + 85 x_11 + 85 x_12 >= 34

85 x_01 + 85 x_02 + 85 x_03 + 85 x_04 + 171 x_06 + 85 x_07 + 85 x_08 + 85 x_13 + 85 x_14 >= 34

-85 x_01 - 85 x_03 - 85 x_05 + 86 x_07 - 85 x_09 - 85 x_11 - 85 x_13 >= -51

-85 x_01 - 85 x_03 - 85 x_05 + 86 x_08 - 85 x_10 - 85 x_12 - 85 x_14 >= -51

-85 x_01 - 85 x_04 - 85 x_06 - 85 x_07 + 86 x_09 - 85 x_12 - 85 x_14 >= -51

-85 x_01 - 85 x_04 - 85 x_06 - 85 x_08 + 86 x_10 - 85 x_11 - 85 x_13 >= -51

-85 x_02 - 85 x_03 - 85 x_06 - 85 x_07 - 85 x_10 + 86 x_11 - 85 x_14 >= -51

-85 x_02 - 85 x_03 - 85 x_06 - 85 x_08 - 85 x_09 + 86 x_12 - 85 x_13 >= -51

-85 x_02 - 85 x_04 - 85 x_05 - 85 x_07 - 85 x_10 - 85 x_12 + 86 x_13 >= -51

-85 x_02 - 85 x_04 - 85 x_05 - 85 x_08 - 85 x_09 - 85 x_11 + 86 x_14 >= -51

x_00 + x_01 + x_02 + x_03 + x_04 + x_05 + x_06 + x_07 + x_08 + x_09 + x_10 + x_11 + x_12 + x_13 + x_14 = 1

[0.5625 x_00^2 + 0.125 x_00*x_01 + 0.5625 x_01^2 + 0.125 x_00*x_02 + 0.125 x_01*x_02 + 0.5625 x_02^2 + 0.125 x_00*x_03 + 0.125 x_01*x_03 + 0.125 x_02*x_03 + 0.5625 x_03^2 + 0.125 x_00*x_04 + 0.125 x_01*x_04 - 0.375 x_02*x_04 - 0.375 x_03*x_04 + 0.5625 x_04^2 + 0.125 x_00*x_05 + 0.125 x_01*x_05 - 0.375 x_02*x_05 - 0.375 x_03*x_05 + 0.125 x_04*x_05 + 0.5625 x_05^2 - 0.375 x_00*x_06 - 0.375 x_01*x_06 + 0.125 x_02*x_06 + 0.125 x_03*x_06 + 0.125 x_04*x_06 + 0.125 x_05*x_06 + 0.5625 x_06^2 - 0.375 x_00*x_07 - 0.375 x_01*x_07 + 0.125 x_02*x_07 + 0.125 x_03*x_07 + 0.125 x_04*x_07 + 0.125 x_05*x_07 + 0.125 x_06*x_07 + 0.5625 x_07^2 + 0.125 x_00*x_08 - 0.375 x_01*x_08 + 0.125 x_02*x_08 - 0.375 x_03*x_08 + 0.125 x_04*x_08 - 0.375 x_05*x_08 - 0.375 x_06*x_08 + 0.125 x_07*x_08 + 0.5625 x_08^2 - 0.375 x_00*x_09 + 0.125 x_01*x_09 - 0.375 x_02*x_09 + 0.125 x_03*x_09 - 0.375 x_04*x_09 + 0.125 x_05*x_09 + 0.125 x_06*x_09 - 0.375 x_07*x_09 + 0.125 x_08*x_09 + 0.5625 x_09^2 + 0.125 x_00*x_10 - 0.375 x_01*x_10 + 0.125 x_02*x_10 - 0.375 x_03*x_10 - 0.375 x_04*x_10 + 0.125 x_05*x_10 + 0.125 x_06*x_10 - 0.375 x_07*x_10 + 0.125 x_08*x_10 + 0.125 x_09*x_10 + 0.5625 x_10^2 - 0.375 x_00*x_11 + 0.125 x_01*x_11 - 0.375 x_02*x_11 + 0.125 x_03*x_11 + 0.125 x_04*x_11 - 0.375 x_05*x_11 - 0.375 x_06*x_11 + 0.125 x_07*x_11 + 0.125 x_08*x_11 + 0.125 x_09*x_11 + 0.125 x_10*x_11 + 0.5625 x_11^2 + 0.125 x_00*x_12 - 0.375 x_01*x_12 - 0.375 x_02*x_12 + 0.125 x_03*x_12 + 0.125 x_04*x_12 - 0.375 x_05*x_12 + 0.125 x_06*x_12 - 0.375 x_07*x_12 + 0.125 x_08*x_12 + 0.125 x_09*x_12 - 0.375 x_10*x_12 - 0.375 x_11*x_12 + 0.5625 x_12^2 - 0.375 x_00*x_13 + 0.125 x_01*x_13 + 0.125 x_02*x_13 - 0.375 x_03*x_13 - 0.375 x_04*x_13 + 0.125 x_05*x_13 - 0.375 x_06*x_13 + 0.125 x_07*x_13 + 0.125 x_08*x_13 + 0.125 x_09*x_13 - 0.375 x_10*x_13 - 0.375 x_11*x_13 + 0.125 x_12*x_13 + 0.5625 x_13^2 - 0.375 x_00*x_14 + 0.125 x_01*x_14 + 0.125 x_02*x_14 - 0.375 x_03*x_14 + 0.125 x_04*x_14 - 0.375 x_05*x_14 + 0.125 x_06*x_14 - 0.375 x_07*x_14 - 0.375 x_08*x_14 - 0.375 x_09*x_14 + 0.125 x_10*x_14 + 0.125 x_11*x_14 + 0.125 x_12*x_14 + 0.125 x_13*x_14 + 0.5625 x_14^2 + 0.125 x_00*x_15 - 0.375 x_01*x_15 - 0.375 x_02*x_15 + 0.125 x_03*x_15 - 0.375 x_04*x_15 + 0.125 x_05*x_15 - 0.375 x_06*x_15 + 0.125 x_07*x_15 - 0.375 x_08*x_15 - 0.375 x_09*x_15 + 0.125 x_10*x_15 + 0.125 x_11*x_15 + 0.125 x_12*x_15 + 0.125 x_13*x_15 + 0.125 x_14*x_15 + 0.5625 x_15^2] <= 50

bounds

	-204 <= x_00 <= 204
	-204 <= x_01 <= 204
	-204 <= x_02 <= 204
	-204 <= x_03 <= 204
	-204 <= x_04 <= 204
	-204 <= x_05 <= 204
	-204 <= x_06 <= 204
	-204 <= x_07 <= 204
	-204 <= x_08 <= 204
	-204 <= x_09 <= 204
	-204 <= x_10 <= 204
	-204 <= x_11 <= 204
	-204 <= x_12 <= 204
	-204 <= x_13 <= 204
	-204 <= x_14 <= 204

general

	x_00 
	x_01 
	x_02 
	x_03 
	x_04 
	x_05 
	x_06 
	x_07 
	x_08 
	x_09 
	x_10 
	x_11 
	x_12 
	x_13 
	x_14
 
end
